StringID Type x y demand ReadyTime DueDate ServiceTime
D0 d 40 50.0 0.0 0.0 1236.0 0.0
Dt d 40 50.0 0.0 0.0 1236.0 0.0
C30 c3 20 55.0 10.0 355.0 407.0 90.0
C12 c2 25 85.0 20.0 176.0 228.0 90.0
C100 c2 55 85.0 20.0 744.0 798.0 90.0
C85 c1 68 60.0 30.0 737.0 809.0 90.0
C64 c2 48 30.0 10.0 263.0 325.0 90.0
P0 p 52 47.0 0.0 0.0 1236.0 45.0
param CV := 200.0 nan nan nan nan
param V := 1.0 nan nan nan nan
